(set-logic SLHV)
(declare-hvar emp IntHeap)
(declare-locvar nil IntLoc)
(declare-datatype pt_record_0 ((Pt_R_0 (loc IntLoc))))
(declare-datatype pt_record_1 ((Pt_R_1 (data Int))))
(declare-const invalidDeref_2 Bool)
(declare-const loc_2 Int)
(declare-const invalidDeref_1 Bool)
(declare-hvar H_1 IntHeap)
(declare-hvar H_2 IntHeap)
(declare-hvar AH_1 IntHeap)
(declare-hvar AH_2 IntHeap)
(declare-const $r_main0_1 Int)
(declare-const $r_main0_2 Int)
(declare-const $i8_push0_1 Int)
(declare-const $i8_push0_2 Int)
(declare-const $i8_main0_1 Int)
(declare-const $i8_main0_2 Int)
(declare-const $i7_push0_1 Int)
(declare-const $i7_push0_2 Int)
(declare-const $i7_pop0_1 Int)
(declare-const $i7_pop0_2 Int)
(declare-const $i7_main0_1 Int)
(declare-const $i7_main0_2 Int)
(declare-const $i6_push0_1 Int)
(declare-const $i6_push0_2 Int)
(declare-const $i6_pop0_1 Int)
(declare-const $i6_pop0_2 Int)
(declare-const $i6_main0_1 Int)
(declare-const $i6_main0_2 Int)
(declare-const $i5_push0_1 Int)
(declare-const $i5_push0_2 Int)
(declare-const $i5_pop0_1 Int)
(declare-const $i5_pop0_2 Int)
(declare-const $i5_main0_1 Int)
(declare-const $i5_main0_2 Int)
(declare-const $i4_push0_1 Int)
(declare-const $i4_push0_2 Int)
(declare-const $i4_pop0_1 Int)
(declare-const $i4_pop0_2 Int)
(declare-const $i4_main0_1 Int)
(declare-const $i4_main0_2 Int)
(declare-const $i3_push0_1 Int)
(declare-const $i3_push0_2 Int)
(declare-const $i3_pop0_1 Int)
(declare-const $i3_pop0_2 Int)
(declare-const $i3_main0_1 Int)
(declare-const $i3_main0_2 Int)
(declare-const $i2_push0_1 Int)
(declare-const $i2_push0_2 Int)
(declare-const $i2_pop0_1 Int)
(declare-const $i2_pop0_2 Int)
(declare-const $i2_main0_1 Int)
(declare-const $i2_main0_2 Int)
(declare-const $i23_push0_1 Int)
(declare-const $i23_push0_2 Int)
(declare-const $i22_main0_1 Int)
(declare-const $i22_main0_2 Int)
(declare-const $i21_main0_1 Int)
(declare-const $i21_main0_2 Int)
(declare-const $i20_pop0_1 Int)
(declare-const $i20_pop0_2 Int)
(declare-const $i20_main0_1 Int)
(declare-const $i20_main0_2 Int)
(declare-const $i1_push0_1 Int)
(declare-const $i1_push0_2 Int)
(declare-const $i1_pop0_1 Int)
(declare-const $i1_pop0_2 Int)
(declare-const $i1_main0_1 Int)
(declare-const $i1_main0_2 Int)
(declare-const $i19_main0_1 Int)
(declare-const $i19_main0_2 Int)
(declare-const $i17_main0_1 Int)
(declare-const $i17_main0_2 Int)
(declare-const $i16_pop0_1 Int)
(declare-const $i16_pop0_2 Int)
(declare-const $i10_pop0_1 Int)
(declare-const $i10_pop0_2 Int)
(declare-const $i10_main0_1 Int)
(declare-const $i10_main0_2 Int)
(declare-const $i0_push0_1 Int)
(declare-const $i0_push0_2 Int)
(declare-const $i0_pop0_1 Int)
(declare-const $i0_pop0_2 Int)
(declare-const $i0_main0_1 Int)
(declare-const $i0_main0_2 Int)
(declare-const $M.9_1 Int)
(declare-const $M.9_2 Int)
(declare-const $M.6_1 Int)
(declare-const $M.6_2 Int)
(declare-const $M.0_1 Int)
(declare-const $M.0_2 Int)
(declare-locvar $p9_push0_1 IntLoc)
(declare-locvar $p9_push0_2 IntLoc)
(declare-locvar $p9_pop0_1 IntLoc)
(declare-locvar $p9_pop0_2 IntLoc)
(declare-locvar $p9_main0_1 IntLoc)
(declare-locvar $p9_main0_2 IntLoc)
(declare-locvar $p8_pop0_1 IntLoc)
(declare-locvar $p8_pop0_2 IntLoc)
(declare-locvar $p24_push0_1 IntLoc)
(declare-locvar $p24_push0_2 IntLoc)
(declare-locvar $p24_pop0_1 IntLoc)
(declare-locvar $p24_pop0_2 IntLoc)
(declare-locvar $p23_pop0_1 IntLoc)
(declare-locvar $p23_pop0_2 IntLoc)
(declare-locvar $p22_push0_1 IntLoc)
(declare-locvar $p22_push0_2 IntLoc)
(declare-locvar $p22_pop0_1 IntLoc)
(declare-locvar $p22_pop0_2 IntLoc)
(declare-locvar $p21_push0_1 IntLoc)
(declare-locvar $p21_push0_2 IntLoc)
(declare-locvar $p21_pop0_1 IntLoc)
(declare-locvar $p21_pop0_2 IntLoc)
(declare-locvar $p20_push0_1 IntLoc)
(declare-locvar $p20_push0_2 IntLoc)
(declare-locvar $p19_push0_1 IntLoc)
(declare-locvar $p19_push0_2 IntLoc)
(declare-locvar $p19_pop0_1 IntLoc)
(declare-locvar $p19_pop0_2 IntLoc)
(declare-locvar $p18_push0_1 IntLoc)
(declare-locvar $p18_push0_2 IntLoc)
(declare-locvar $p18_pop0_1 IntLoc)
(declare-locvar $p18_pop0_2 IntLoc)
(declare-locvar $p18_main0_1 IntLoc)
(declare-locvar $p18_main0_2 IntLoc)
(declare-locvar $p17_push0_1 IntLoc)
(declare-locvar $p17_push0_2 IntLoc)
(declare-locvar $p17_pop0_1 IntLoc)
(declare-locvar $p17_pop0_2 IntLoc)
(declare-locvar $p16_push0_1 IntLoc)
(declare-locvar $p16_push0_2 IntLoc)
(declare-locvar $p16_main0_1 IntLoc)
(declare-locvar $p16_main0_2 IntLoc)
(declare-locvar $p15_push0_1 IntLoc)
(declare-locvar $p15_push0_2 IntLoc)
(declare-locvar $p15_pop0_1 IntLoc)
(declare-locvar $p15_pop0_2 IntLoc)
(declare-locvar $p15_main0_1 IntLoc)
(declare-locvar $p15_main0_2 IntLoc)
(declare-locvar $p14_push0_1 IntLoc)
(declare-locvar $p14_push0_2 IntLoc)
(declare-locvar $p14_pop0_1 IntLoc)
(declare-locvar $p14_pop0_2 IntLoc)
(declare-locvar $p14_main0_1 IntLoc)
(declare-locvar $p14_main0_2 IntLoc)
(declare-locvar $p13_push0_1 IntLoc)
(declare-locvar $p13_push0_2 IntLoc)
(declare-locvar $p13_pop0_1 IntLoc)
(declare-locvar $p13_pop0_2 IntLoc)
(declare-locvar $p13_main0_1 IntLoc)
(declare-locvar $p13_main0_2 IntLoc)
(declare-locvar $p12_push0_1 IntLoc)
(declare-locvar $p12_push0_2 IntLoc)
(declare-locvar $p12_pop0_1 IntLoc)
(declare-locvar $p12_pop0_2 IntLoc)
(declare-locvar $p12_main0_1 IntLoc)
(declare-locvar $p12_main0_2 IntLoc)
(declare-locvar $p11_push0_1 IntLoc)
(declare-locvar $p11_push0_2 IntLoc)
(declare-locvar $p11_pop0_1 IntLoc)
(declare-locvar $p11_pop0_2 IntLoc)
(declare-locvar $p11_main0_1 IntLoc)
(declare-locvar $p11_main0_2 IntLoc)
(declare-locvar $p10_push0_1 IntLoc)
(declare-locvar $p10_push0_2 IntLoc)
(declare-locvar $M.8_1 IntLoc)
(declare-locvar $M.8_2 IntLoc)
(declare-locvar $M.7_1 IntLoc)
(declare-locvar $M.7_2 IntLoc)
(declare-locvar $M.5_1 IntLoc)
(declare-locvar $M.5_2 IntLoc)
(declare-locvar $M.4_1 IntLoc)
(declare-locvar $M.4_2 IntLoc)
(declare-locvar $M.10_1 IntLoc)
(declare-locvar $M.10_2 IntLoc)
(declare-locvar $M.1_1 IntLoc)
(declare-locvar $M.1_2 IntLoc)
(declare-const loc_1 Int)
(declare-const $i4_main01_2 Int)
(declare-const $i3_main01_2 Int)
(declare-const $i2_main02_2 Int)
(declare-const invalidDeref_0 Bool)
(declare-hvar H_0 IntHeap)
(declare-hvar AH_0 IntHeap)
(declare-const $r_main0_0 Int)
(declare-const $i8_push0_0 Int)
(declare-const $i8_main0_0 Int)
(declare-const $i7_push0_0 Int)
(declare-const $i7_pop0_0 Int)
(declare-const $i7_main0_0 Int)
(declare-const $i6_push0_0 Int)
(declare-const $i6_pop0_0 Int)
(declare-const $i6_main0_0 Int)
(declare-const $i5_push0_0 Int)
(declare-const $i5_pop0_0 Int)
(declare-const $i5_main0_0 Int)
(declare-const $i4_push0_0 Int)
(declare-const $i4_pop0_0 Int)
(declare-const $i4_main0_0 Int)
(declare-const $i3_push0_0 Int)
(declare-const $i3_pop0_0 Int)
(declare-const $i3_main0_0 Int)
(declare-const $i2_push0_0 Int)
(declare-const $i2_pop0_0 Int)
(declare-const $i23_push0_0 Int)
(declare-const $i22_main0_0 Int)
(declare-const $i21_main0_0 Int)
(declare-const $i20_pop0_0 Int)
(declare-const $i20_main0_0 Int)
(declare-const $i1_push0_0 Int)
(declare-const $i1_pop0_0 Int)
(declare-const $i19_main0_0 Int)
(declare-const $i17_main0_0 Int)
(declare-const $i16_pop0_0 Int)
(declare-const $i10_pop0_0 Int)
(declare-const $i10_main0_0 Int)
(declare-const $i0_push0_0 Int)
(declare-const $i0_pop0_0 Int)
(declare-const $M.9_0 Int)
(declare-const $M.6_0 Int)
(declare-const $M.0_0 Int)
(declare-locvar $p9_push0_0 IntLoc)
(declare-locvar $p9_pop0_0 IntLoc)
(declare-locvar $p9_main0_0 IntLoc)
(declare-locvar $p8_pop0_0 IntLoc)
(declare-locvar $p24_push0_0 IntLoc)
(declare-locvar $p24_pop0_0 IntLoc)
(declare-locvar $p23_pop0_0 IntLoc)
(declare-locvar $p22_push0_0 IntLoc)
(declare-locvar $p22_pop0_0 IntLoc)
(declare-locvar $p21_push0_0 IntLoc)
(declare-locvar $p21_pop0_0 IntLoc)
(declare-locvar $p20_push0_0 IntLoc)
(declare-locvar $p19_push0_0 IntLoc)
(declare-locvar $p19_pop0_0 IntLoc)
(declare-locvar $p18_push0_0 IntLoc)
(declare-locvar $p18_pop0_0 IntLoc)
(declare-locvar $p18_main0_0 IntLoc)
(declare-locvar $p17_push0_0 IntLoc)
(declare-locvar $p17_pop0_0 IntLoc)
(declare-locvar $p16_push0_0 IntLoc)
(declare-locvar $p16_main0_0 IntLoc)
(declare-locvar $p15_push0_0 IntLoc)
(declare-locvar $p15_pop0_0 IntLoc)
(declare-locvar $p15_main0_0 IntLoc)
(declare-locvar $p14_push0_0 IntLoc)
(declare-locvar $p14_pop0_0 IntLoc)
(declare-locvar $p14_main0_0 IntLoc)
(declare-locvar $p13_push0_0 IntLoc)
(declare-locvar $p13_pop0_0 IntLoc)
(declare-locvar $p13_main0_0 IntLoc)
(declare-locvar $p12_push0_0 IntLoc)
(declare-locvar $p12_pop0_0 IntLoc)
(declare-locvar $p12_main0_0 IntLoc)
(declare-locvar $p11_push0_0 IntLoc)
(declare-locvar $p11_pop0_0 IntLoc)
(declare-locvar $p11_main0_0 IntLoc)
(declare-locvar $p10_push0_0 IntLoc)
(declare-locvar $M.8_0 IntLoc)
(declare-locvar $M.7_0 IntLoc)
(declare-locvar $M.5_0 IntLoc)
(declare-locvar $M.4_0 IntLoc)
(declare-locvar $M.10_0 IntLoc)
(declare-locvar $M.1_0 IntLoc)
(declare-const $i2_main01_1 Int)
(declare-const $i1_main01_1 Int)
(declare-const $i0_main01_1 Int)
(declare-const loc_0 Int)
(assert
 (let (($x1803 (= loc_2 4)))
 (let (($x1765 (= invalidDeref_2 invalidDeref_1)))
 (let (($x1761 (= H_2 H_1)))
 (let (($x1762 (and (and true (= AH_2 AH_1)) $x1761)))
 (let (($x1754 (= $r_main0_2 $r_main0_1)))
 (let (($x1751 (= $i8_push0_2 $i8_push0_1)))
 (let (($x1748 (= $i8_main0_2 $i8_main0_1)))
 (let (($x1745 (= $i7_push0_2 $i7_push0_1)))
 (let (($x1742 (= $i7_pop0_2 $i7_pop0_1)))
 (let (($x1739 (= $i7_main0_2 $i7_main0_1)))
 (let (($x1736 (= $i6_push0_2 $i6_push0_1)))
 (let (($x1733 (= $i6_pop0_2 $i6_pop0_1)))
 (let (($x1730 (= $i6_main0_2 $i6_main0_1)))
 (let (($x1727 (= $i5_push0_2 $i5_push0_1)))
 (let (($x1724 (= $i5_pop0_2 $i5_pop0_1)))
 (let (($x1721 (= $i5_main0_2 $i5_main0_1)))
 (let (($x1718 (= $i4_push0_2 $i4_push0_1)))
 (let (($x1715 (= $i4_pop0_2 $i4_pop0_1)))
 (let (($x1784 (= $i4_main0_2 $i4_main0_1)))
 (let (($x1712 (= $i3_push0_2 $i3_push0_1)))
 (let (($x1709 (= $i3_pop0_2 $i3_pop0_1)))
 (let (($x1780 (= $i3_main0_2 $i3_main0_1)))
 (let (($x1706 (= $i2_push0_2 $i2_push0_1)))
 (let (($x1703 (= $i2_pop0_2 $i2_pop0_1)))
 (let (($x1776 (= $i2_main0_2 $i2_main0_1)))
 (let (($x1700 (= $i23_push0_2 $i23_push0_1)))
 (let (($x1697 (= $i22_main0_2 $i22_main0_1)))
 (let (($x1694 (= $i21_main0_2 $i21_main0_1)))
 (let (($x1691 (= $i20_pop0_2 $i20_pop0_1)))
 (let (($x1688 (= $i20_main0_2 $i20_main0_1)))
 (let (($x1685 (= $i1_push0_2 $i1_push0_1)))
 (let (($x1682 (= $i1_pop0_2 $i1_pop0_1)))
 (let (($x1679 (= $i1_main0_2 $i1_main0_1)))
 (let (($x1676 (= $i19_main0_2 $i19_main0_1)))
 (let (($x1673 (= $i17_main0_2 $i17_main0_1)))
 (let (($x1670 (= $i16_pop0_2 $i16_pop0_1)))
 (let (($x1667 (= $i10_pop0_2 $i10_pop0_1)))
 (let (($x1664 (= $i10_main0_2 $i10_main0_1)))
 (let (($x1661 (= $i0_push0_2 $i0_push0_1)))
 (let (($x1658 (= $i0_pop0_2 $i0_pop0_1)))
 (let (($x1655 (= $i0_main0_2 $i0_main0_1)))
 (let (($x1652 (= $M.9_2 $M.9_1)))
 (let (($x1653 (and (and (and true (= $M.0_2 $M.0_1)) (= $M.6_2 $M.6_1)) $x1652)))
 (let (($x1671 (and (and (and (and (and (and $x1653 $x1655) $x1658) $x1661) $x1664) $x1667) $x1670)))
 (let (($x1689 (and (and (and (and (and (and $x1671 $x1673) $x1676) $x1679) $x1682) $x1685) $x1688)))
 (let (($x1701 (and (and (and (and $x1689 $x1691) $x1694) $x1697) $x1700)))
 (let (($x1783 (and (and (and (and (and (and $x1701 $x1776) $x1703) $x1706) $x1780) $x1709) $x1712)))
 (let (($x1790 (and (and (and (and (and (and $x1783 $x1784) $x1715) $x1718) $x1721) $x1724) $x1727)))
 (let (($x1796 (and (and (and (and (and (and $x1790 $x1730) $x1733) $x1736) $x1739) $x1742) $x1745)))
 (let (($x1799 (and (and (and $x1796 $x1748) $x1751) $x1754)))
 (let (($x1642 (= $p9_push0_2 $p9_push0_1)))
 (let (($x1639 (= $p9_pop0_2 $p9_pop0_1)))
 (let (($x1636 (= $p9_main0_2 $p9_main0_1)))
 (let (($x1633 (= $p8_pop0_2 $p8_pop0_1)))
 (let (($x1630 (= $p24_push0_2 $p24_push0_1)))
 (let (($x1627 (= $p24_pop0_2 $p24_pop0_1)))
 (let (($x1624 (= $p23_pop0_2 $p23_pop0_1)))
 (let (($x1621 (= $p22_push0_2 $p22_push0_1)))
 (let (($x1618 (= $p22_pop0_2 $p22_pop0_1)))
 (let (($x1615 (= $p21_push0_2 $p21_push0_1)))
 (let (($x1612 (= $p21_pop0_2 $p21_pop0_1)))
 (let (($x1609 (= $p20_push0_2 $p20_push0_1)))
 (let (($x1606 (= $p19_push0_2 $p19_push0_1)))
 (let (($x1603 (= $p19_pop0_2 $p19_pop0_1)))
 (let (($x1600 (= $p18_push0_2 $p18_push0_1)))
 (let (($x1597 (= $p18_pop0_2 $p18_pop0_1)))
 (let (($x1594 (= $p18_main0_2 $p18_main0_1)))
 (let (($x1591 (= $p17_push0_2 $p17_push0_1)))
 (let (($x1588 (= $p17_pop0_2 $p17_pop0_1)))
 (let (($x1585 (= $p16_push0_2 $p16_push0_1)))
 (let (($x1582 (= $p16_main0_2 $p16_main0_1)))
 (let (($x1579 (= $p15_push0_2 $p15_push0_1)))
 (let (($x1576 (= $p15_pop0_2 $p15_pop0_1)))
 (let (($x1573 (= $p15_main0_2 $p15_main0_1)))
 (let (($x1570 (= $p14_push0_2 $p14_push0_1)))
 (let (($x1567 (= $p14_pop0_2 $p14_pop0_1)))
 (let (($x1564 (= $p14_main0_2 $p14_main0_1)))
 (let (($x1561 (= $p13_push0_2 $p13_push0_1)))
 (let (($x1558 (= $p13_pop0_2 $p13_pop0_1)))
 (let (($x1555 (= $p13_main0_2 $p13_main0_1)))
 (let (($x1552 (= $p12_push0_2 $p12_push0_1)))
 (let (($x1549 (= $p12_pop0_2 $p12_pop0_1)))
 (let (($x1546 (= $p12_main0_2 $p12_main0_1)))
 (let (($x1543 (= $p11_push0_2 $p11_push0_1)))
 (let (($x1540 (= $p11_pop0_2 $p11_pop0_1)))
 (let (($x1537 (= $p11_main0_2 $p11_main0_1)))
 (let (($x1534 (= $p10_push0_2 $p10_push0_1)))
 (let (($x1531 (= $M.8_2 $M.8_1)))
 (let (($x1528 (= $M.7_2 $M.7_1)))
 (let (($x1525 (= $M.5_2 $M.5_1)))
 (let (($x1522 (= $M.4_2 $M.4_1)))
 (let (($x1523 (and (and (and true (= $M.1_2 $M.1_1)) (= $M.10_2 $M.10_1)) $x1522)))
 (let (($x1541 (and (and (and (and (and (and $x1523 $x1525) $x1528) $x1531) $x1534) $x1537) $x1540)))
 (let (($x1559 (and (and (and (and (and (and $x1541 $x1543) $x1546) $x1549) $x1552) $x1555) $x1558)))
 (let (($x1577 (and (and (and (and (and (and $x1559 $x1561) $x1564) $x1567) $x1570) $x1573) $x1576)))
 (let (($x1595 (and (and (and (and (and (and $x1577 $x1579) $x1582) $x1585) $x1588) $x1591) $x1594)))
 (let (($x1613 (and (and (and (and (and (and $x1595 $x1597) $x1600) $x1603) $x1606) $x1609) $x1612)))
 (let (($x1631 (and (and (and (and (and (and $x1613 $x1615) $x1618) $x1621) $x1624) $x1627) $x1630)))
 (let (($x1643 (and (and (and (and $x1631 $x1633) $x1636) $x1639) $x1642)))
 (let (($x1800 (and (and (and (or true invalidDeref_1) (and true true)) $x1643) $x1799)))
 (let (($x1488 (= $i1_main0_1 1)))
 (let (($x1481 (= loc_1 2)))
 (let (($x1771 (and $x1481 $x1488)))
 (let (($x1768 (= loc_2 3)))
 (let (($x1719 (and (and (and (and (and (and $x1701 $x1703) $x1706) $x1709) $x1712) $x1715) $x1718)))
 (let (($x1737 (and (and (and (and (and (and $x1719 $x1721) $x1724) $x1727) $x1730) $x1733) $x1736)))
 (let (($x1755 (and (and (and (and (and (and $x1737 $x1739) $x1742) $x1745) $x1748) $x1751) $x1754)))
 (let (($x1511 (= $i4_main0_2 $i4_main01_2)))
 (let (($x1512 (and (and (= $i2_main0_2 $i2_main02_2) (= $i3_main0_2 $i3_main01_2)) $x1511)))
 (let (($x1513 (and $x1512 true)))
 (let (($x1499 (or (and (and (distinct 1 $i3_main01_2) true) (= $i4_main01_2 1)) (and (not (and (distinct 1 $i3_main01_2) true)) (= $i4_main01_2 0)))))
 (let (($x1503 (and (or (= $i3_main01_2 $M.6_1) invalidDeref_1) (or $x1499 invalidDeref_1))))
 (let (($x1644 (and (and (and $x1503 (or (= $i2_main02_2 1) invalidDeref_1)) $x1513) $x1643)))
 (let (($x1490 (and $x1481 (not $x1488))))
 (let (($x1806 (and (=> $x1490 (and (and (and (and $x1644 $x1755) $x1762) $x1765) $x1768)) (=> $x1771 (and (and (and $x1800 $x1762) $x1765) $x1803)))))
 (let (($x1478 (= invalidDeref_1 invalidDeref_0)))
 (let (($x1474 (= H_1 H_0)))
 (let (($x1475 (and (and true (= AH_1 AH_0)) $x1474)))
 (let (($x1467 (= $r_main0_1 $r_main0_0)))
 (let (($x1463 (= $i8_push0_1 $i8_push0_0)))
 (let (($x1459 (= $i8_main0_1 $i8_main0_0)))
 (let (($x1455 (= $i7_push0_1 $i7_push0_0)))
 (let (($x1451 (= $i7_pop0_1 $i7_pop0_0)))
 (let (($x1447 (= $i7_main0_1 $i7_main0_0)))
 (let (($x1443 (= $i6_push0_1 $i6_push0_0)))
 (let (($x1439 (= $i6_pop0_1 $i6_pop0_0)))
 (let (($x1435 (= $i6_main0_1 $i6_main0_0)))
 (let (($x1431 (= $i5_push0_1 $i5_push0_0)))
 (let (($x1427 (= $i5_pop0_1 $i5_pop0_0)))
 (let (($x1423 (= $i5_main0_1 $i5_main0_0)))
 (let (($x1419 (= $i4_push0_1 $i4_push0_0)))
 (let (($x1415 (= $i4_pop0_1 $i4_pop0_0)))
 (let (($x1411 (= $i4_main0_1 $i4_main0_0)))
 (let (($x1407 (= $i3_push0_1 $i3_push0_0)))
 (let (($x1403 (= $i3_pop0_1 $i3_pop0_0)))
 (let (($x1399 (= $i3_main0_1 $i3_main0_0)))
 (let (($x1395 (= $i2_push0_1 $i2_push0_0)))
 (let (($x1391 (= $i2_pop0_1 $i2_pop0_0)))
 (let (($x1387 (= $i23_push0_1 $i23_push0_0)))
 (let (($x1383 (= $i22_main0_1 $i22_main0_0)))
 (let (($x1379 (= $i21_main0_1 $i21_main0_0)))
 (let (($x1375 (= $i20_pop0_1 $i20_pop0_0)))
 (let (($x1371 (= $i20_main0_1 $i20_main0_0)))
 (let (($x1367 (= $i1_push0_1 $i1_push0_0)))
 (let (($x1363 (= $i1_pop0_1 $i1_pop0_0)))
 (let (($x1359 (= $i19_main0_1 $i19_main0_0)))
 (let (($x1355 (= $i17_main0_1 $i17_main0_0)))
 (let (($x1351 (= $i16_pop0_1 $i16_pop0_0)))
 (let (($x1347 (= $i10_pop0_1 $i10_pop0_0)))
 (let (($x1343 (= $i10_main0_1 $i10_main0_0)))
 (let (($x1339 (= $i0_push0_1 $i0_push0_0)))
 (let (($x1335 (= $i0_pop0_1 $i0_pop0_0)))
 (let (($x1331 (= $M.9_1 $M.9_0)))
 (let (($x1332 (and (and (and true (= $M.0_1 $M.0_0)) (= $M.6_1 $M.6_0)) $x1331)))
 (let (($x1356 (and (and (and (and (and (and $x1332 $x1335) $x1339) $x1343) $x1347) $x1351) $x1355)))
 (let (($x1380 (and (and (and (and (and (and $x1356 $x1359) $x1363) $x1367) $x1371) $x1375) $x1379)))
 (let (($x1404 (and (and (and (and (and (and $x1380 $x1383) $x1387) $x1391) $x1395) $x1399) $x1403)))
 (let (($x1428 (and (and (and (and (and (and $x1404 $x1407) $x1411) $x1415) $x1419) $x1423) $x1427)))
 (let (($x1452 (and (and (and (and (and (and $x1428 $x1431) $x1435) $x1439) $x1443) $x1447) $x1451)))
 (let (($x1468 (and (and (and (and $x1452 $x1455) $x1459) $x1463) $x1467)))
 (let (($x1319 (= $p9_push0_1 $p9_push0_0)))
 (let (($x1315 (= $p9_pop0_1 $p9_pop0_0)))
 (let (($x1311 (= $p9_main0_1 $p9_main0_0)))
 (let (($x1307 (= $p8_pop0_1 $p8_pop0_0)))
 (let (($x1303 (= $p24_push0_1 $p24_push0_0)))
 (let (($x1299 (= $p24_pop0_1 $p24_pop0_0)))
 (let (($x1295 (= $p23_pop0_1 $p23_pop0_0)))
 (let (($x1291 (= $p22_push0_1 $p22_push0_0)))
 (let (($x1287 (= $p22_pop0_1 $p22_pop0_0)))
 (let (($x1283 (= $p21_push0_1 $p21_push0_0)))
 (let (($x1279 (= $p21_pop0_1 $p21_pop0_0)))
 (let (($x1275 (= $p20_push0_1 $p20_push0_0)))
 (let (($x1271 (= $p19_push0_1 $p19_push0_0)))
 (let (($x1267 (= $p19_pop0_1 $p19_pop0_0)))
 (let (($x1263 (= $p18_push0_1 $p18_push0_0)))
 (let (($x1259 (= $p18_pop0_1 $p18_pop0_0)))
 (let (($x1255 (= $p18_main0_1 $p18_main0_0)))
 (let (($x1251 (= $p17_push0_1 $p17_push0_0)))
 (let (($x1247 (= $p17_pop0_1 $p17_pop0_0)))
 (let (($x1243 (= $p16_push0_1 $p16_push0_0)))
 (let (($x1239 (= $p16_main0_1 $p16_main0_0)))
 (let (($x1235 (= $p15_push0_1 $p15_push0_0)))
 (let (($x1231 (= $p15_pop0_1 $p15_pop0_0)))
 (let (($x1227 (= $p15_main0_1 $p15_main0_0)))
 (let (($x1223 (= $p14_push0_1 $p14_push0_0)))
 (let (($x1219 (= $p14_pop0_1 $p14_pop0_0)))
 (let (($x1215 (= $p14_main0_1 $p14_main0_0)))
 (let (($x1211 (= $p13_push0_1 $p13_push0_0)))
 (let (($x1207 (= $p13_pop0_1 $p13_pop0_0)))
 (let (($x1203 (= $p13_main0_1 $p13_main0_0)))
 (let (($x1199 (= $p12_push0_1 $p12_push0_0)))
 (let (($x1195 (= $p12_pop0_1 $p12_pop0_0)))
 (let (($x1191 (= $p12_main0_1 $p12_main0_0)))
 (let (($x1187 (= $p11_push0_1 $p11_push0_0)))
 (let (($x1183 (= $p11_pop0_1 $p11_pop0_0)))
 (let (($x1179 (= $p11_main0_1 $p11_main0_0)))
 (let (($x1175 (= $p10_push0_1 $p10_push0_0)))
 (let (($x1171 (= $M.8_1 $M.8_0)))
 (let (($x1167 (= $M.7_1 $M.7_0)))
 (let (($x1163 (= $M.5_1 $M.5_0)))
 (let (($x1159 (= $M.4_1 $M.4_0)))
 (let (($x1160 (and (and (and true (= $M.1_1 $M.1_0)) (= $M.10_1 $M.10_0)) $x1159)))
 (let (($x1184 (and (and (and (and (and (and $x1160 $x1163) $x1167) $x1171) $x1175) $x1179) $x1183)))
 (let (($x1208 (and (and (and (and (and (and $x1184 $x1187) $x1191) $x1195) $x1199) $x1203) $x1207)))
 (let (($x1232 (and (and (and (and (and (and $x1208 $x1211) $x1215) $x1219) $x1223) $x1227) $x1231)))
 (let (($x1256 (and (and (and (and (and (and $x1232 $x1235) $x1239) $x1243) $x1247) $x1251) $x1255)))
 (let (($x1280 (and (and (and (and (and (and $x1256 $x1259) $x1263) $x1267) $x1271) $x1275) $x1279)))
 (let (($x1304 (and (and (and (and (and (and $x1280 $x1283) $x1287) $x1291) $x1295) $x1299) $x1303)))
 (let (($x1320 (and (and (and (and $x1304 $x1307) $x1311) $x1315) $x1319)))
 (let (($x1145 (= $i2_main0_1 $i2_main01_1)))
 (let (($x1146 (and (and (= $i0_main0_1 $i0_main01_1) (= $i1_main0_1 $i1_main01_1)) $x1145)))
 (let (($x1147 (and $x1146 true)))
 (let (($x1133 (or (and (and (distinct 1 $i0_main01_1) true) (= $i1_main01_1 1)) (and (not (and (distinct 1 $i0_main01_1) true)) (= $i1_main01_1 0)))))
 (let (($x1137 (and (or (= $i0_main01_1 $M.0_0) invalidDeref_0) (or $x1133 invalidDeref_0))))
 (let (($x1321 (and (and (and $x1137 (or (= $i2_main01_1 1) invalidDeref_0)) $x1147) $x1320)))
 (let (($x1115 (= loc_0 1)))
 (let (($x1119 (not invalidDeref_0)))
 (let (($x1117 (and (and (= H_0 emp) (= AH_0 emp)) $x1115)))
 (let (($x1484 (and (and $x1117 $x1119) (=> $x1115 (and (and (and (and $x1321 $x1468) $x1475) $x1478) $x1481)))))
 (and (and $x1484 $x1806) invalidDeref_2)))))))))))))))))))))))))))))))))))))))))))))))))))))))))))))))))))))))))))))))))))))))))))))))))))))))))))))))))))))))))))))))))))))))))))))))))))))))))))))))))))))))))))))))))))))))))))))))))))))))))))))))))))))))))))))
(check-sat)
